c generated by ezSAT
p cnf 34 80
    1              0
   -2              0
    1              0
   -3   -4    6    0
   -6    3         0
   -6    4         0
    5    6    7    0
   -7   -5         0
   -7   -6         0
   -6   -5    8    0
   -8    6         0
   -8    5         0
    7    8   -9    0
    9   -7         0
    9   -8         0
    9              0
  -10  -11   13    0
  -13   10         0
  -13   11         0
   12   13   14    0
  -14  -12         0
  -14  -13         0
  -13  -12   15    0
  -15   13         0
  -15   12         0
   14   15  -16    0
   16  -14         0
   16  -15         0
   16              0
    5   12  -18    0
   18   -5         0
   18  -12         0
   17   18   19    0
  -19  -17         0
  -19  -18         0
  -18  -17   20    0
  -20   18         0
  -20   17         0
   19   20  -21    0
   21  -19         0
   21  -20         0
   21              0
    3   -4   22    0
  -22   -3         0
  -22    4         0
    4   -3   23    0
  -23   -4         0
  -23    3         0
   22   23  -24    0
   24  -22         0
   24  -23         0
   11   24   25    0
  -25  -11         0
  -25  -24         0
  -24  -11   26    0
  -26   24         0
  -26   11         0
   25   26  -27    0
   27  -25         0
   27  -26         0
   27              0
   10  -11   29    0
  -29  -10         0
  -29   11         0
   11  -10   30    0
  -30  -11         0
  -30   10         0
   29   30  -31    0
   31  -29         0
   31  -30         0
   28   31   32    0
  -32  -28         0
  -32  -31         0
  -31  -28   33    0
  -33   31         0
  -33   28         0
   32   33  -34    0
   34  -32         0
   34  -33         0
   34              0